
List of user-set options:

                                    Name   Value                used
                           linear_solver = ma57                  yes
                  ma57_automatic_scaling = yes                   yes
                                max_iter = 10000                 yes
                             mu_strategy = adaptive              yes
                             output_file = DynamicOptimization_FtildeState_vAIPOPTinfo.txt  yes
                             print_level = 5                     yes
                      print_user_options = yes                   yes
                                     tol = 1e-006                yes
This is Ipopt version 3.11.0, running with linear solver ma57.

Number of nonzeros in equality constraint Jacobian...:    35281
Number of nonzeros in inequality constraint Jacobian.:     7596
Number of nonzeros in Lagrangian Hessian.............:    13860

Total number of variables............................:     8209
                     variables with only lower bounds:        0
                variables with lower and upper bounds:     8209
                     variables with only upper bounds:        0
Total number of equality constraints.................:     6301
Total number of inequality constraints...............:     3799
        inequality constraints with only lower bounds:     1890
   inequality constraints with lower and upper bounds:       19
        inequality constraints with only upper bounds:     1890

iter    objective    inf_pr   inf_du lg(mu)  ||d||  lg(rg) alpha_du alpha_pr  ls
   0 9.9999900e-003 7.09e+002 1.75e+000   0.0 0.00e+000    -  0.00e+000 0.00e+000   0
   1 3.0831404e-001 3.60e+002 1.52e+001  -0.5 4.96e+000    -  8.15e-001 1.00e+000h  1
   2 5.9205039e-001 3.50e+002 1.48e+001  -5.3 3.61e+001   0.0 2.73e-002 2.61e-002h  1
   3 4.1995823e+001 4.19e+002 3.62e+002   0.2 6.45e+001   0.4 1.00e+000 6.41e-001h  1
   4 7.1886400e+001 8.92e+001 4.21e+002   0.1 2.99e+001   0.9 9.83e-001 1.00e+000h  1
   5 7.2484791e+001 2.16e+001 3.94e+001  -1.3 5.98e-001   1.3 9.70e-001 1.00e+000h  1
   6 7.2440335e+001 1.50e+000 6.18e+000  -2.2 9.34e-002   0.8 9.98e-001 1.00e+000h  1
   7 7.2307366e+001 9.92e-003 2.80e-001  -3.9 1.33e-001   0.3 1.00e+000 1.00e+000h  1
   8 7.1910185e+001 1.02e-001 2.79e-001  -5.3 3.97e-001  -0.2 1.00e+000 1.00e+000f  1
   9 7.0731500e+001 1.35e+000 2.76e-001  -6.6 1.18e+000  -0.6 1.00e+000 1.00e+000f  1
iter    objective    inf_pr   inf_du lg(mu)  ||d||  lg(rg) alpha_du alpha_pr  ls
  10 6.7303639e+001 8.74e+000 2.67e-001  -7.6 3.43e+000  -1.1 1.00e+000 1.00e+000f  1
  11 5.8065935e+001 2.43e+001 2.40e-001  -8.8 9.24e+000  -1.6 1.00e+000 1.00e+000f  1
  12 4.7307704e+001 4.51e+002 4.70e-001  -6.8 2.08e+001  -2.1 1.00e+000 5.16e-001f  1
  13 4.7271368e+001 4.51e+002 4.69e-001  -4.8 3.82e+001  -2.5 1.00e+000 9.50e-004h  1
  14 4.1803232e+001 2.63e+002 1.42e+000  -2.8 1.75e+001  -2.1 1.00e+000 3.12e-001f  1
  15 2.5784438e+001 7.30e+001 4.78e-001  -1.8 2.88e+001  -2.6 5.75e-001 5.56e-001f  1
  16 1.4834677e+001 3.96e+002 5.66e+000  -1.7 1.94e+001  -3.1 1.32e-001 5.65e-001f  1
  17 1.2390348e+001 3.41e+002 1.51e+000  -1.7 6.18e+000  -2.6 3.11e-001 7.87e-001f  1
  18 1.1209967e+001 7.67e+001 1.38e+000  -1.9 3.89e+000  -2.2 3.62e-001 1.00e+000h  1
  19 1.1172033e+001 5.85e+001 3.36e+000  -3.2 8.31e-001  -0.9 9.99e-001 1.00e+000h  1
iter    objective    inf_pr   inf_du lg(mu)  ||d||  lg(rg) alpha_du alpha_pr  ls
  20 1.0501386e+001 9.00e+000 1.48e+000  -4.5 6.71e-001  -1.4 1.00e+000 1.00e+000h  1
  21 9.2736665e+000 1.43e+001 5.46e-001  -3.4 1.65e+000  -1.8 1.00e+000 7.42e-001f  1
  22 8.8546311e+000 1.44e+000 8.51e-002  -3.0 4.53e-001  -1.4 1.00e+000 9.24e-001h  1
  23 8.2751283e+000 1.50e+000 3.76e-002  -4.2 1.35e+000  -1.9 1.00e+000 4.29e-001f  1
  24 7.4684221e+000 2.53e+000 3.02e-002  -5.0 2.99e+000  -2.4 1.00e+000 2.69e-001f  1
  25 6.8445589e+000 2.65e+000 3.07e-002  -5.2 5.16e+000  -2.8 1.00e+000 1.21e-001f  1
  26 5.7025826e+000 2.75e+000 5.44e-002  -4.7 7.52e+000  -3.3 1.00e+000 1.52e-001f  1
  27 4.1189261e+000 3.28e+000 6.51e-002  -3.8 9.20e+000  -3.8 1.00e+000 1.91e-001f  1
  28 3.0495502e+000 3.13e+000 5.09e-002  -4.5 1.07e+001  -4.3 8.13e-001 1.60e-001f  1
  29 1.6318997e+000 8.98e+001 2.74e-002  -3.4 8.96e+000  -3.9 1.02e-001 3.79e-001f  1
iter    objective    inf_pr   inf_du lg(mu)  ||d||  lg(rg) alpha_du alpha_pr  ls
  30 5.2418734e-001 3.74e+001 3.92e-002  -3.0 1.27e+001  -4.3 1.00e+000 6.48e-001f  1
  31 2.5729870e-001 6.55e+000 1.05e-002  -4.1 6.57e+000    -  9.02e-001 1.00e+000h  1
  32 5.7826415e-001 1.61e+001 2.01e-003  -3.8 1.94e+000  -4.8 9.38e-001 1.00e+000h  1
  33 4.4921053e-001 9.48e+000 1.95e-003  -9.8 5.25e+000  -5.3 8.12e-001 1.00e+000h  1
  34 3.5388076e-001 1.73e+001 1.42e-003  -4.6 7.35e+000  -5.8 1.00e+000 8.07e-001h  1
  35 3.4002067e-001 5.25e+000 1.69e-003  -4.6 2.38e+000  -5.3 1.00e+000 8.55e-001h  1
  36 3.1401787e-001 2.18e+001 3.60e-003  -4.6 3.82e+000  -5.8 1.00e+000 1.00e+000h  1
  37 2.9611004e-001 5.73e+000 1.97e-003  -4.7 5.55e+000  -6.3 1.00e+000 1.00e+000h  1
  38 2.9360731e-001 5.13e+001 4.81e-003  -4.7 4.05e+001    -  6.46e-001 9.39e-001h  1
  39 2.6896376e-001 2.16e+000 1.48e-003  -5.1 1.13e+001    -  1.00e+000 1.00e+000h  1
iter    objective    inf_pr   inf_du lg(mu)  ||d||  lg(rg) alpha_du alpha_pr  ls
  40 2.6583978e-001 3.77e+000 1.45e-003  -5.2 2.10e+001    -  1.00e+000 1.00e+000h  1
  41 2.5716996e-001 2.49e+000 4.31e-004  -5.6 5.46e+000    -  9.83e-001 1.00e+000h  1
  42 2.5420544e-001 3.04e+000 5.31e-005  -5.9 7.46e+000    -  1.00e+000 1.00e+000h  1
  43 2.5307439e-001 2.90e+000 6.60e-005  -6.1 4.76e+000    -  1.00e+000 1.00e+000h  1
  44 2.5216295e-001 7.98e+000 1.85e-004  -6.7 6.99e+000    -  9.66e-001 1.00e+000h  1
  45 2.5221150e-001 8.06e+000 5.87e-004  -6.7 2.08e+001    -  1.00e+000 1.00e+000h  1
  46 2.5209291e-001 7.84e-001 3.11e-005  -6.8 5.75e+000    -  1.00e+000 1.00e+000h  1
  47 2.5193268e-001 9.83e-002 3.93e-006  -7.2 3.90e+000    -  9.93e-001 1.00e+000h  1
  48 2.5187599e-001 2.29e-002 1.52e-006  -7.7 1.73e+000    -  1.00e+000 1.00e+000h  1
  49 2.5185169e-001 1.02e-002 3.22e-004  -8.2 8.59e-001    -  8.00e-001 1.00e+000h  1
iter    objective    inf_pr   inf_du lg(mu)  ||d||  lg(rg) alpha_du alpha_pr  ls
  50 2.5184783e-001 1.22e-003 1.43e-007  -8.6 4.02e-001    -  1.00e+000 1.00e+000h  1
  51 2.5184556e-001 3.81e-004 6.29e-008  -8.9 2.38e-001    -  1.00e+000 1.00e+000h  1
  52 2.5184434e-001 1.17e-004 9.37e-005  -9.4 1.44e-001    -  8.73e-001 1.00e+000h  1
  53 2.5184385e-001 3.00e-005 2.41e-009 -10.0 7.84e-002    -  1.00e+000 1.00e+000h  1
Reallocating memory for MA57: lfact (504753)
  54 2.5184374e-001 8.29e-006 2.36e-006 -10.6 3.05e-002    -  9.90e-001 1.00e+000h  1
  55 2.5184372e-001 1.25e-006 3.21e-010 -11.0 1.09e-002    -  1.00e+000 1.00e+000h  1

Number of Iterations....: 55

                                   (scaled)                 (unscaled)
Objective...............:  2.5184371731411093e-001   2.5184371731411093e-001
Dual infeasibility......:  3.2120229318525654e-010   3.2120229318525654e-010
Constraint violation....:  1.0649419507056656e-007   1.2458070131060595e-006
Complementarity.........:  2.2235593157034450e-011   2.2235593157034450e-011
Overall NLP error.......:  1.0649419507056656e-007   1.2458070131060595e-006


Number of objective function evaluations             = 56
Number of objective gradient evaluations             = 56
Number of equality constraint evaluations            = 56
Number of inequality constraint evaluations          = 56
Number of equality constraint Jacobian evaluations   = 56
Number of inequality constraint Jacobian evaluations = 56
Number of Lagrangian Hessian evaluations             = 55
Total CPU secs in IPOPT (w/o function evaluations)   =      5.940
Total CPU secs in NLP function evaluations           =      2.047

EXIT: Optimal Solution Found.
